# Objective value = 6
x0,1_2 0
x0,1_10 1
x0,1_16 0
x0,1_17 0
x0,1_27 0
x0,1_34 0
x0,1_35 0
x0,1_49 0
x0,1_51 0
x0,2_2 0
x0,2_10 0
x0,2_16 0
x0,2_17 0
x0,2_27 0
x0,2_34 0
x0,2_35 0
x0,2_49 0
x0,2_51 0
x0,3_2 0
x0,3_10 0
x0,3_16 0
x0,3_17 0
x0,3_27 1
x0,3_34 0
x0,3_35 0
x0,3_49 0
x0,3_51 0
x0,4_2 0
x0,4_10 0
x0,4_16 0
x0,4_17 0
x0,4_27 0
x0,4_34 0
x0,4_35 0
x0,4_49 0
x0,4_51 0
x0,5_2 0
x0,5_10 0
x0,5_16 0
x0,5_17 0
x0,5_27 0
x0,5_34 0
x0,5_35 0
x0,5_49 0
x0,5_51 0
x0,6_2 0
x0,6_10 0
x0,6_16 0
x0,6_17 0
x0,6_27 0
x0,6_34 0
x0,6_35 0
x0,6_49 0
x0,6_51 0
x0,7_2 0
x0,7_10 0
x0,7_16 0
x0,7_17 0
x0,7_27 0
x0,7_34 0
x0,7_35 0
x0,7_49 0
x0,7_51 0
x0,8_2 0
x0,8_10 0
x0,8_16 0
x0,8_17 0
x0,8_27 0
x0,8_34 0
x0,8_35 0
x0,8_49 0
x0,8_51 0
x0,9_2 0
x0,9_10 0
x0,9_16 0
x0,9_17 0
x0,9_27 0
x0,9_34 0
x0,9_35 0
x0,9_49 0
x0,9_51 0
x1,2_2 0
x1,2_10 0
x1,2_16 1
x1,2_17 0
x1,2_27 0
x1,2_34 0
x1,2_35 0
x1,2_49 0
x1,2_51 0
x1,3_2 0
x1,3_10 0
x1,3_16 0
x1,3_17 1
x1,3_27 0
x1,3_34 0
x1,3_35 0
x1,3_49 0
x1,3_51 0
x1,4_2 0
x1,4_10 0
x1,4_16 0
x1,4_17 0
x1,4_27 0
x1,4_34 0
x1,4_35 0
x1,4_49 1
x1,4_51 0
x1,5_2 0
x1,5_10 0
x1,5_16 0
x1,5_17 0
x1,5_27 0
x1,5_34 0
x1,5_35 0
x1,5_49 0
x1,5_51 1
x1,6_2 0
x1,6_10 0
x1,6_16 0
x1,6_17 0
x1,6_27 0
x1,6_34 0
x1,6_35 0
x1,6_49 0
x1,6_51 0
x1,7_2 0
x1,7_10 0
x1,7_16 0
x1,7_17 0
x1,7_27 0
x1,7_34 0
x1,7_35 0
x1,7_49 0
x1,7_51 0
x1,8_2 0
x1,8_10 0
x1,8_16 0
x1,8_17 0
x1,8_27 0
x1,8_34 0
x1,8_35 0
x1,8_49 0
x1,8_51 0
x1,9_2 0
x1,9_10 0
x1,9_16 0
x1,9_17 0
x1,9_27 0
x1,9_34 0
x1,9_35 0
x1,9_49 0
x1,9_51 0
x2,3_2 0
x2,3_10 0
x2,3_16 0
x2,3_17 0
x2,3_27 0
x2,3_34 0
x2,3_35 0
x2,3_49 0
x2,3_51 0
x2,4_2 0
x2,4_10 0
x2,4_16 0
x2,4_17 0
x2,4_27 0
x2,4_34 0
x2,4_35 0
x2,4_49 0
x2,4_51 0
x2,5_2 0
x2,5_10 0
x2,5_16 0
x2,5_17 0
x2,5_27 0
x2,5_34 0
x2,5_35 1
x2,5_49 0
x2,5_51 0
x2,6_2 0
x2,6_10 0
x2,6_16 0
x2,6_17 0
x2,6_27 0
x2,6_34 0
x2,6_35 0
x2,6_49 0
x2,6_51 0
x2,7_2 0
x2,7_10 0
x2,7_16 0
x2,7_17 0
x2,7_27 0
x2,7_34 0
x2,7_35 0
x2,7_49 0
x2,7_51 0
x2,8_2 0
x2,8_10 0
x2,8_16 0
x2,8_17 0
x2,8_27 0
x2,8_34 0
x2,8_35 0
x2,8_49 0
x2,8_51 0
x2,9_2 0
x2,9_10 0
x2,9_16 0
x2,9_17 0
x2,9_27 0
x2,9_34 0
x2,9_35 0
x2,9_49 0
x2,9_51 0
x3,4_2 0
x3,4_10 0
x3,4_16 0
x3,4_17 0
x3,4_27 0
x3,4_34 0
x3,4_35 0
x3,4_49 0
x3,4_51 0
x3,5_2 0
x3,5_10 0
x3,5_16 0
x3,5_17 0
x3,5_27 0
x3,5_34 1
x3,5_35 0
x3,5_49 0
x3,5_51 0
x3,6_2 0
x3,6_10 0
x3,6_16 0
x3,6_17 0
x3,6_27 0
x3,6_34 0
x3,6_35 0
x3,6_49 0
x3,6_51 0
x3,7_2 0
x3,7_10 0
x3,7_16 0
x3,7_17 0
x3,7_27 0
x3,7_34 0
x3,7_35 0
x3,7_49 0
x3,7_51 0
x3,8_2 0
x3,8_10 0
x3,8_16 0
x3,8_17 0
x3,8_27 0
x3,8_34 0
x3,8_35 0
x3,8_49 0
x3,8_51 0
x3,9_2 0
x3,9_10 0
x3,9_16 0
x3,9_17 0
x3,9_27 0
x3,9_34 0
x3,9_35 0
x3,9_49 0
x3,9_51 0
x4,5_2 1
x4,5_10 0
x4,5_16 0
x4,5_17 0
x4,5_27 0
x4,5_34 0
x4,5_35 0
x4,5_49 0
x4,5_51 0
x4,6_2 0
x4,6_10 0
x4,6_16 0
x4,6_17 0
x4,6_27 0
x4,6_34 0
x4,6_35 0
x4,6_49 0
x4,6_51 0
x4,7_2 0
x4,7_10 0
x4,7_16 0
x4,7_17 0
x4,7_27 0
x4,7_34 0
x4,7_35 0
x4,7_49 0
x4,7_51 0
x4,8_2 0
x4,8_10 0
x4,8_16 0
x4,8_17 0
x4,8_27 0
x4,8_34 0
x4,8_35 0
x4,8_49 0
x4,8_51 0
x4,9_2 0
x4,9_10 0
x4,9_16 0
x4,9_17 0
x4,9_27 0
x4,9_34 0
x4,9_35 0
x4,9_49 0
x4,9_51 0
x5,6_2 0
x5,6_10 0
x5,6_16 0
x5,6_17 0
x5,6_27 0
x5,6_34 0
x5,6_35 0
x5,6_49 0
x5,6_51 0
x5,7_2 0
x5,7_10 0
x5,7_16 0
x5,7_17 0
x5,7_27 0
x5,7_34 0
x5,7_35 0
x5,7_49 0
x5,7_51 0
x5,8_2 0
x5,8_10 0
x5,8_16 0
x5,8_17 0
x5,8_27 0
x5,8_34 0
x5,8_35 0
x5,8_49 0
x5,8_51 0
x5,9_2 0
x5,9_10 0
x5,9_16 0
x5,9_17 0
x5,9_27 0
x5,9_34 0
x5,9_35 0
x5,9_49 0
x5,9_51 0
x6,7_2 0
x6,7_10 0
x6,7_16 0
x6,7_17 0
x6,7_27 0
x6,7_34 0
x6,7_35 0
x6,7_49 0
x6,7_51 0
x6,8_2 0
x6,8_10 0
x6,8_16 0
x6,8_17 0
x6,8_27 0
x6,8_34 0
x6,8_35 0
x6,8_49 0
x6,8_51 0
x6,9_2 0
x6,9_10 0
x6,9_16 0
x6,9_17 0
x6,9_27 0
x6,9_34 0
x6,9_35 0
x6,9_49 0
x6,9_51 0
x7,8_2 0
x7,8_10 0
x7,8_16 0
x7,8_17 0
x7,8_27 0
x7,8_34 0
x7,8_35 0
x7,8_49 0
x7,8_51 0
x7,9_2 0
x7,9_10 0
x7,9_16 0
x7,9_17 0
x7,9_27 0
x7,9_34 0
x7,9_35 0
x7,9_49 0
x7,9_51 0
x8,9_2 0
x8,9_10 0
x8,9_16 0
x8,9_17 0
x8,9_27 0
x8,9_34 0
x8,9_35 0
x8,9_49 0
x8,9_51 0
z0 1
z1 1
z2 1
z3 1
z4 1
z5 1
z6 0
z7 0
z8 0
z9 0
p0 2
p1 12
p2 28
p3 29
p4 61
p5 63
p6 64
p7 65
p8 66
p9 67
